(set-logic QF_S)
(declare-fun var0 () String)
(declare-fun var1 () String)
(declare-fun var2 () String)
(declare-fun var3 () String)
(declare-fun var4 () String)
(declare-fun var5 () String)
(declare-fun var6 () String)
(declare-fun var7 () String)
(declare-fun var8 () String)
(declare-fun var9 () String)
(declare-fun var10 () String)
(declare-fun var11 () String)
(declare-fun var12 () String)
(declare-fun var13 () String)
(declare-fun var14 () String)
(declare-fun var15 () String)
(declare-fun var16 () String)
(declare-fun var17 () String)
(declare-fun var18 () String)
(declare-fun var19 () String)
(declare-fun var20 () String)
(declare-fun var21 () String)
(declare-fun var22 () String)
(declare-fun var23 () String)
(declare-fun var24 () String)
(declare-fun var25 () String)
(declare-fun var26 () String)
(declare-fun var27 () String)
(declare-fun var28 () String)
(declare-fun var29 () String)
(declare-fun var30 () String)
(declare-fun var31 () String)
(declare-fun var32 () String)
(declare-fun var33 () String)
(declare-fun var34 () String)
(declare-fun var35 () String)
(declare-fun var36 () String)
(declare-fun var37 () String)
(declare-fun var38 () String)
(declare-fun var39 () String)
(declare-fun var40 () String)
(declare-fun var41 () String)
(declare-fun var42 () String)
(declare-fun var43 () String)
(declare-fun var44 () String)
(declare-fun var45 () String)
(declare-fun var46 () String)
(declare-fun var47 () String)
(declare-fun var48 () String)
(declare-fun var49 () String)
(declare-fun var50 () String)
(declare-fun var51 () String)
(declare-fun var52 () String)
(declare-fun var53 () String)
(declare-fun var54 () String)
(declare-fun var55 () String)
(declare-fun var56 () String)
(declare-fun var57 () String)
(declare-fun var58 () String)
(declare-fun var59 () String)
(declare-fun var60 () String)
(assert (= var0 (Concat var1 var2)))
(assert (= var2 (Concat var3 var4)))
(assert (= var4 (Concat var5 var6)))
(assert (= var6 (Concat var7 var8)))
(assert (= var8 (Concat var9 var10)))
(assert (= var10 (Concat var11 var12)))
(assert (= var12 (Concat var13 var14)))
(assert (= var14 (Concat var15 var16)))
(assert (= var16 (Concat var17 var18)))
(assert (= var18 (Concat var19 var20)))
(assert (= var20 (Concat var21 var22)))
(assert (= var22 (Concat var23 var24)))
(assert (= var24 (Concat var25 var26)))
(assert (= var26 (Concat var27 var28)))
(assert (= var28 (Concat var29 var30)))
(assert (= var30 (Concat var31 var32)))
(assert (= var32 (Concat var33 var34)))
(assert (= var34 (Concat var35 var36)))
(assert (= var36 (Concat var37 var38)))
(assert (= var38 (Concat var39 var40)))
(assert (= var40 (Concat var41 var42)))
(assert (= var42 (Concat var43 var44)))
(assert (= var44 (Concat var45 var46)))
(assert (= var46 (Concat var47 var48)))
(assert (= var48 (Concat var49 var50)))
(assert (= var50 (Concat var51 var52)))
(assert (= var52 (Concat var53 var54)))
(assert (= var54 (Concat var55 var56)))
(assert (= var56 (Concat var57 var58)))
(assert (= var58 (Concat var59 var60)))
(assert (= var0 "solution"))
(assert (= "n" (CharAt var27 528)))
(assert (= "4" (CharAt var24 498)))
(assert (= "n" (CharAt var28 564)))
(assert (= "e" (CharAt var9 382)))
(assert (= "&" (CharAt var28 144)))
(assert (= "8" (CharAt var12 389)))
(assert (= "8" (CharAt var57 674)))
(assert (= "}" (CharAt var10 677)))
(assert (= "=" (CharAt var2 603)))
(assert (= "f" (CharAt var46 265)))
(assert (= "\"" (CharAt var10 812)))
(assert (= "e" (CharAt var37 402)))
(assert (= "k" (CharAt var57 762)))
(assert (= "#" (CharAt var45 571)))
(assert (= "e" (CharAt var39 100)))
(assert (= "L" (CharAt var54 79)))
(assert (= "G" (CharAt var42 13)))
(assert (= "~" (CharAt var42 149)))
(assert (= "\\" (CharAt var59 970)))
(assert (= "(" (CharAt var34 11)))
(assert (= "2" (CharAt var39 906)))
(assert (= "@" (CharAt var10 498)))
(assert (= ":" (CharAt var5 154)))
(assert (= "A" (CharAt var24 7)))
(assert (= "h" (CharAt var3 626)))
(assert (= "x" (CharAt var20 352)))
(assert (= "u" (CharAt var10 282)))
(assert (= "v" (CharAt var52 273)))
(assert (= "[" (CharAt var11 235)))
(assert (= "7" (CharAt var15 304)))
(assert (= "i" (CharAt var29 877)))
(assert (= "&" (CharAt var16 602)))
(assert (= "3" (CharAt var45 576)))
(assert (= "F" (CharAt var36 278)))
(assert (= "%" (CharAt var20 60)))
(assert (= "r" (CharAt var10 998)))
(assert (= "V" (CharAt var45 443)))
(assert (= "\"" (CharAt var24 819)))
(assert (= "h" (CharAt var31 65)))
(assert (= "/" (CharAt var37 339)))
(assert (= "M" (CharAt var29 224)))
(assert (= "2" (CharAt var39 129)))
(assert (= "W" (CharAt var29 587)))
(assert (= "t" (CharAt var57 450)))
(assert (= "%" (CharAt var34 37)))
(assert (= "R" (CharAt var39 84)))
(assert (= "'" (CharAt var8 996)))
(assert (= "I" (CharAt var16 354)))
(assert (= "b" (CharAt var30 340)))
(assert (= "^" (CharAt var19 600)))
(assert (= "q" (CharAt var11 683)))
(assert (= ";" (CharAt var31 474)))
(assert (= "8" (CharAt var17 312)))
(assert (= "`" (CharAt var53 680)))
(assert (= "-" (CharAt var31 284)))
(assert (= "H" (CharAt var11 29)))
(assert (= "H" (CharAt var59 926)))
(assert (= "c" (CharAt var52 3)))
(assert (= "M" (CharAt var58 551)))
(assert (= "5" (CharAt var42 313)))
(assert (= "j" (CharAt var50 470)))
(assert (= "J" (CharAt var45 971)))
(assert (= "-" (CharAt var48 798)))
(assert (= "<" (CharAt var4 174)))
(assert (= "<" (CharAt var39 155)))
(assert (= ">" (CharAt var49 622)))
(assert (= "/" (CharAt var23 64)))
(assert (= "6" (CharAt var13 14)))
(assert (= "s" (CharAt var18 922)))
(assert (= "9" (CharAt var13 307)))
(assert (= "<" (CharAt var27 643)))
(assert (= ":" (CharAt var38 655)))
(assert (= "O" (CharAt var27 458)))
(assert (= "P" (CharAt var29 312)))
(assert (= "." (CharAt var31 673)))
(assert (= "a" (CharAt var50 978)))
(assert (= "K" (CharAt var36 548)))
(assert (= "A" (CharAt var47 409)))
(assert (= "H" (CharAt var53 886)))
(assert (= "B" (CharAt var46 717)))
(assert (= "S" (CharAt var40 317)))
(check-sat)